CMD:
./solvers/bin/cadical --plain --no-reduce -t 1600 ./data/cnfs//arbitrated_top_n2_w8_d128_e0/arbitrated_top_n2_w8_d128_e0.57.cnf

c --- [ banner ] -------------------------------------------------------------
c 
c CaDiCaL SAT Solver
c Copyright (c) 2016-2024
c A. Biere, M. Fleury, N. Froleyks, K. Fazekas, F. Pollitt, T. Faller
c JKU Linz, University of Freiburg, TU Wien
c 
c Version 2.1.3 5296d3d2a9bf48c154ab2acb5e44625776d821bf
c g++ (Gentoo 12.3.1_p20230526 p2) 12.3.1 20230526 -Wall -Wextra -O3 -DNDEBUG
c Sat Aug 9 07:26:21 PDT 2025 Linux cedar2.int.cedar.computecanada.ca 5.14.0-362.24.2.el9_3.x86_64 x86_64
c 
c --- [ limit ] --------------------------------------------------------------
c 
c setting time limit to 1600 seconds real time (due to '-t 1600')
c 
c --- [ parsing input ] ------------------------------------------------------
c 
c reading DIMACS file from './data/cnfs//arbitrated_top_n2_w8_d128_e0/arbitrated_top_n2_w8_d128_e0.57.cnf'
c opening file to read './data/cnfs//arbitrated_top_n2_w8_d128_e0/arbitrated_top_n2_w8_d128_e0.57.cnf'
c found 'p cnf 750057 2239439' header
c parsed 2239439 clauses in 0.37 seconds process time
c 
c --- [ options ] ------------------------------------------------------------
c 
c   --compact=false                (different from default 'true')
c   --decompose=false              (different from default 'true')
c   --deduplicate=false            (different from default 'true')
c   --elim=false                   (different from default 'true')
c   --probe=false                  (different from default 'true')
c   --reduce=false                 (different from default 'true')
c   --subsume=false                (different from default 'true')
c   --ternary=false                (different from default 'true')
c   --transred=false               (different from default 'true')
c   --vivify=false                 (different from default 'true')
c 
c --- [ solving ] ------------------------------------------------------------
c 
c time measured in process time since initialization
c 
c  seconds   reductions  redundant   irredundant
c          MB    restarts       trail        variables
c           level   conflicts       glue           remaining
c 
c *  0.37 304  0 0   0    0    0  0% 0 1764310 420817 56%
c {  0.45 308  0 0   0    0    0  0% 0 1764310 420817 56%
c i  0.64 308 919 0   6  182  175 72% 2 1764310 420613 56%
c i  0.67 308 764 0  17  223  208 67% 3 1764310 420474 56%
c i  0.69 308 655 0  24  263  246 64% 3 1764310 419685 56%
c i  0.70 308 391 0  24  461  413 56% 3 1764310 419227 56%
c i  0.70 308 384 0  24  472  419 56% 3 1764310 417917 56%
c i  0.70 308 380 0  24  477  423 56% 3 1764310 417916 56%
c i  0.73 308 301 0  26  642  573 54% 3 1764310 417886 56%
c i  0.73 308 299 0  26  649  578 54% 3 1764310 417635 56%
c i  0.73 308 296 0  26  657  584 54% 3 1764310 416998 56%
c i  0.74 308 292 0  26  672  594 54% 3 1764310 416582 56%
c i  0.74 308 283 0  26  700  619 54% 3 1764310 416519 56%
c i  0.74 308 281 0  26  705  623 54% 3 1764310 416118 55%
c i  0.75 308 260 0  26  784  687 53% 2 1764310 415334 55%
c i  0.75 308 250 0  26  819  719 53% 2 1764310 414736 55%
c i  0.75 308 250 0  26  820  719 53% 2 1764310 414698 55%
c i  0.75 308 250 0  26  821  719 53% 2 1764310 413386 55%
c i  0.76 308 243 0  26  850  744 53% 2 1764310 412985 55%
c i  0.76 308 242 0  26  857  748 53% 2 1764310 411665 55%
c 
c  seconds    reductions  redundant   irredundant
c          MB     restarts       trail        variables
c            level   conflicts       glue           remaining
c 
c i  0.76 308 240 0  26  863  751 53% 2 1764310 410087 55%
c i  0.77 308 235 0  26  887  771 52% 2 1764310 409300 55%
c i  0.77 308 230 0  26  908  787 52% 2 1764310 407724 54%
c i  0.77 308 230 0  26  909  787 52% 2 1764310 406947 54%
c i  0.77 308 227 0  26  921  793 52% 2 1764310 406416 54%
c i  0.77 308 227 0  26  924  794 52% 2 1764310 406412 54%
c i  0.77 308 216 0  26  974  840 52% 2 1764310 406134 54%
c }  0.78 308 211 0  26 1004  868 52% 2 1764310 406134 54%
c [  0.78 308  0 0  26 1004  868  0% 0 1764310 406134 54%
c O  0.79 308 2173 0  26 1005  868 48% 0 1764310 406134 54%
c i  0.79 308 2173 0  26 1005  868 48% 0 1764310 406133 54%
c i  1.30 308 2307 0  27 2535 2253 75% 4 1764310 406068 54%
c ]  1.41 309 2313 0  27 3004 2685 70% 6 1764310 405742 54%
c {  1.41 309 211 0  27 3004 2685 52% 2 1764310 405742 54%
c F  1.42 309 213 0  27 3006 2687 52% 2 1764310 405742 54%
c i  1.43 309 208 0  27 3035 2714 52% 2 1764310 405487 54%
c i  1.54 309 190 0  39 3331 2981 52% 2 1764310 405412 54%
c i  1.54 309 188 0  42 3348 2996 52% 2 1764310 405266 54%
c i  1.54 309 188 0  43 3349 2996 52% 2 1764310 405133 54%
c i  1.54 309 188 0  43 3351 2997 52% 2 1764310 405125 54%
c 
c  seconds    reductions  redundant   irredundant
c          MB     restarts       trail        variables
c            level   conflicts       glue           remaining
c 
c i  1.54 309 187 0  44 3352 2997 52% 2 1764310 405118 54%
c i  1.54 309 187 0  45 3357 3001 52% 2 1764310 405116 54%
c i  1.56 309 180 0  60 3411 3047 52% 2 1764310 405045 54%
c i  1.56 309 180 0  60 3412 3047 52% 2 1764310 405006 54%
... skipped 338 lines ...
c { 561.04 552 42 0 47263 1023016 953455 52% 9 963356 381501 51%
c i 579.94 552 42 0 48696 1032485 962346 52% 9 963356 381495 51%
c # 584.42 552 41 0 49029 1035081 964518 52% 9 963356 381495 51%
c 
c  seconds    reductions        redundant   irredundant
c           MB     restarts             trail       variables
c            level       conflicts          glue          remaining
c 
c i 608.43 552 39 0 50369 1054120 981195 52% 9 963356 381462 51%
c i 610.34 552 39 0 50501 1055469 982433 52% 9 963356 381460 51%
c i 655.32 557 39 0 53507 1077721 1003319 52% 9 963356 381455 51%
c B 662.52 559 39 0 53966 1081082 1006476 52% 9 963356 381454 51%
c i 669.46 560 39 0 54413 1085192 1010399 52% 9 963356 381447 51%
c i 685.70 562 39 0 55526 1092516 1017281 52% 9 963356 381444 51%
c W 744.65 591 38 0 59500 1128085 1034572 52% 10 963188 381444 51%
c F 812.31 591 36 0 63982 1176088 1079545 52% 10 963188 381444 51%
c B 894.66 611 35 0 69076 1225089 1124596 52% 10 963188 381444 51%
c i 924.61 613 34 0 70863 1244639 1142597 52% 10 963188 381399 51%
c i 924.61 613 34 0 70863 1244640 1142597 52% 10 963188 381389 51%
c i 953.07 613 34 0 72635 1261334 1158105 52% 10 963188 381105 51%
c W 966.33 634 32 0 73259 1275092 1170187 52% 10 962028 381097 51%
c i 971.54 634 32 0 73602 1278887 1173542 52% 10 962028 381091 51%
c i 978.93 634 32 0 74063 1282957 1177120 52% 10 962028 381086 51%
c # 1026.48 634 28 0 76606 1326093 1214549 52% 10 962028 381086 51%
c i 1082.32 634 26 0 79819 1370450 1252006 52% 9 962028 380934 51%
c B 1103.40 634 27 0 81363 1378094 1259236 52% 10 962028 380934 51%
c i 1118.15 634 28 0 82303 1383822 1264671 52% 10 962028 380932 51%
c W 1207.36 645 31 0 87874 1431096 1204609 52% 10 961510 380932 51%
c 
c   seconds    reductions         redundant    irredundant
c            MB     restarts              trail        variables
c             level       conflicts           glue           remaining
c 
c i 1305.04 647 33 0 94032 1480613 1251034 52% 10 961510 380927 51%
c i 1305.04 647 33 0 94032 1480616 1251035 52% 10 961510 380921 51%
c F 1311.51 647 33 0 94328 1485097 1254901 52% 10 961510 380920 51%
c B 1413.72 651 35 0 100008 1540099 1306484 52% 10 961510 380920 51%
c i 1482.29 659 35 0 104076 1572202 1336790 52% 11 961510 380912 51%
c i 1482.29 659 35 0 104076 1572214 1336801 52% 11 961510 380899 51%
c i 1482.29 659 35 0 104076 1572236 1336821 52% 11 961510 380892 51%
c i 1482.29 659 35 0 104076 1572245 1336829 52% 11 961510 380886 51%
c i 1520.25 664 35 0 106082 1595715 1358828 52% 11 961510 380874 51%
c W 1521.90 689 35 0 106152 1596100 1359116 52% 11 961329 380874 51%
c i 1526.05 689 35 0 106417 1597956 1360906 52% 11 961329 380677 51%
c } 1591.09 692 34 0 109788 1636961 1397112 52% 11 961329 380677 51%
c ? 1591.09 692 34 0 109788 1636961 1397112 52% 11 961329 380677 51%
c 
c --- [ result ] -------------------------------------------------------------
c 
c UNKNOWN
c 
c --- [ run-time profiling ] -------------------------------------------------
c 
c process time taken by individual solving procedures
c (percentage relative to process time for solving)
c 
c      1590.72  100.00% search
c      1340.40   84.26% unstable
c       243.56   15.31% stable
c         6.68    0.42% walk
c         0.37    0.02% parse
c         0.08    0.01% lucky
c         0.00    0.00% simplify
c   =================================
c      1590.72   99.98% solve
c 
c last line shows process time for solving
c (percentage relative to total process time)
c 
c --- [ statistics ] ---------------------------------------------------------
c 
c chronological:            316789        19.35 %  of conflicts
c conflicts:               1636961      1029.07    per second
c decisions:               6694414      4208.41    per second
c fixed:                    369365        49.24 %  of all variables
c learned:                 1606581        98.14 %  per conflict
c learned_lits:          115798825       100.00 %  learned literals
c minimized:                     0         0.00 %  learned literals
c shrunken:               21303529        18.40 %  learned literals
c minishrunken:           32063434        27.69 %  learned literals
c otfs:                       4568         0.28 %  of conflict
c propagations:         4855889090         3.05 M  per second
c rephased:                     56     29231.45    interval
c restarts:                 109788        14.91    interval
c stabilizing:                   5        41.66 %  of conflicts
c subsumed:                  82248         2.44 %  of all clauses
c strengthened:               4458         0.13 %  of all clauses
c walked:                       18     90942.28    interval
c 
c seconds are measured in process time for solving
c 
c --- [ resources ] ----------------------------------------------------------
c 
c total process time since initialization:      1591.09    seconds
c total real time since initialization:         1600.00    seconds
c maximum resident set size of process:          933.11    MB
c 
c --- [ shutting down ] ------------------------------------------------------
c 
c exit 0
